c Sudoku solution
p cnf 729 0
136 0
148 0
155 0
163 0
283 0
338 0
371 0
423 0
313 0
431 0
444 0
492 0
512 0
529 0
659 0
724 0
751 0
811 0
121 0
833 0
852 0
889 0
479 0
898 0
278 0
926 0
628 0
968 0
718 0
973 0
743 0
553 0
458 0
588 0
693 0
987 0
991 0
874 0
954 0
932 0
681 0
594 0
256 0
357 0
417 0
616 0
634 0
535 0
237 0
827 0
915 0
739 0
767 0
949 0
342 0
241 0
222 0
325 0
295 0
561 0
662 0
796 0
576 0
485 0
677 0
466 0
645 0
547 0
846 0
865 0
775 0
782 0
172 0
184 0
386 0
399 0
197 0
119 0
214 0
269 0
364 0
